src/Lab4Minizinc/AutoRegressionFilter.dzn
% inputs depending on subtask
nbrNodes = 28; N = nbrNodes - 1; nbrAdds = 1; nbrMuls = 3;
addCycles = 1; mulCycles = 2; nbrAddNodes = 11; nbrMulNodes = 15;
% setting up the model
addNodes = 8..13 union 18..19 union 24..27;
mulNodes = 0..N diff addNodes;
maxTime = if addCycles > mulCycles then nbrNodes*addCycles else nbrNodes*mulCycles endif;
connections = array1d(0..N,  
[{},              %index 0
{},
{},
{},
{},
{},  %index 5
{},
{},
{0, 1},
{2, 3},
{4, 5}, %index 10
{6, 7},
{9},
{10},
{12},
{13}, %index 15
{12},
{13},
{14, 15},
{16, 17},
{18}, %index 20
{19},
{18},
{19},
{20, 21},
{22, 23}, %index 25
{24, 8},
{11, 25}]);%index 27