src/Lab4Minizinc/AutoRegressionFilter.fzn
predicate jacop_list_diff2(array [int] of var int: x,array [int] of var int: y,array [int] of var int: lx,array [int] of var int: ly);
predicate jacop_cumulative(array [int] of var int: s,array [int] of var int: d,array [int] of var int: r,var int: b);
array [1..12] of int: addDur = [1,1,1,1,1,1,1,1,1,1,1,1];
array [1..16] of int: mulDur = [2,2,2,2,2,2,2,2,2,2,2,2,2,2,2,2];
array [1..12] of int: X_INTRODUCED_112 = [1,1,1,1,1,1,1,1,1,1,1,1];
array [1..16] of int: X_INTRODUCED_113 = [1,1,1,1,1,1,1,1,1,1,1,1,1,1,1,1];
array [1..12] of int: X_INTRODUCED_145 = [1,1,1,1,1,1,1,1,1,1,1,1];
array [1..16] of int: X_INTRODUCED_146 = [1,1,1,1,1,1,1,1,1,1,1,1,1,1,1,1];
array [1..16] of int: X_INTRODUCED_147 = [2,2,2,2,2,2,2,2,2,2,2,2,2,2,2,2];
var 0..56: X_INTRODUCED_56;
var 0..56: X_INTRODUCED_57;
var 0..56: X_INTRODUCED_58;
var 0..56: X_INTRODUCED_59;
var 0..56: X_INTRODUCED_60;
var 0..56: X_INTRODUCED_61;
var 0..56: X_INTRODUCED_62;
var 0..56: X_INTRODUCED_63;
var 0..56: X_INTRODUCED_64;
var 0..56: X_INTRODUCED_65;
var 0..56: X_INTRODUCED_66;
var 0..56: X_INTRODUCED_67;
var 0..56: X_INTRODUCED_68;
var 0..56: X_INTRODUCED_69;
var 0..56: X_INTRODUCED_70;
var 0..56: X_INTRODUCED_71;
var 0..56: X_INTRODUCED_72;
var 0..56: X_INTRODUCED_73;
var 0..56: X_INTRODUCED_74;
var 0..56: X_INTRODUCED_75;
var 0..56: X_INTRODUCED_76;
var 0..56: X_INTRODUCED_77;
var 0..56: X_INTRODUCED_78;
var 0..56: X_INTRODUCED_79;
var 0..56: X_INTRODUCED_80;
var 0..56: X_INTRODUCED_81;
var 0..56: X_INTRODUCED_82;
var 0..56: X_INTRODUCED_83;
var 0..1: X_INTRODUCED_84;
var 0..1: X_INTRODUCED_85;
var 0..1: X_INTRODUCED_86;
var 0..1: X_INTRODUCED_87;
var 0..1: X_INTRODUCED_88;
var 0..1: X_INTRODUCED_89;
var 0..1: X_INTRODUCED_90;
var 0..1: X_INTRODUCED_91;
var 0..1: X_INTRODUCED_92;
var 0..1: X_INTRODUCED_93;
var 0..1: X_INTRODUCED_94;
var 0..1: X_INTRODUCED_95;
var 0..2: X_INTRODUCED_96;
var 0..2: X_INTRODUCED_97;
var 0..2: X_INTRODUCED_98;
var 0..2: X_INTRODUCED_99;
var 0..2: X_INTRODUCED_100;
var 0..2: X_INTRODUCED_101;
var 0..2: X_INTRODUCED_102;
var 0..2: X_INTRODUCED_103;
var 0..2: X_INTRODUCED_104;
var 0..2: X_INTRODUCED_105;
var 0..2: X_INTRODUCED_106;
var 0..2: X_INTRODUCED_107;
var 0..2: X_INTRODUCED_108;
var 0..2: X_INTRODUCED_109;
var 0..2: X_INTRODUCED_110;
var 0..2: X_INTRODUCED_111;
var 0..56: end:: output_var;
array [1..28] of var int: cycles:: output_array([0..27]) = [2,2,2,2,2,2,2,2,1,1,1,1,1,1,2,2,2,2,1,1,2,2,2,2,1,1,1,1];
array [1..28] of var int: start:: output_array([0..27]) = [X_INTRODUCED_68,X_INTRODUCED_69,X_INTRODUCED_70,X_INTRODUCED_71,X_INTRODUCED_72,X_INTRODUCED_73,X_INTRODUCED_74,X_INTRODUCED_75,X_INTRODUCED_56,X_INTRODUCED_57,X_INTRODUCED_58,X_INTRODUCED_59,X_INTRODUCED_60,X_INTRODUCED_61,X_INTRODUCED_76,X_INTRODUCED_77,X_INTRODUCED_78,X_INTRODUCED_79,X_INTRODUCED_62,X_INTRODUCED_63,X_INTRODUCED_80,X_INTRODUCED_81,X_INTRODUCED_82,X_INTRODUCED_83,X_INTRODUCED_64,X_INTRODUCED_65,X_INTRODUCED_66,X_INTRODUCED_67];
array [1..12] of var int: startAdd = [X_INTRODUCED_56,X_INTRODUCED_57,X_INTRODUCED_58,X_INTRODUCED_59,X_INTRODUCED_60,X_INTRODUCED_61,X_INTRODUCED_62,X_INTRODUCED_63,X_INTRODUCED_64,X_INTRODUCED_65,X_INTRODUCED_66,X_INTRODUCED_67];
array [1..16] of var int: startMul = [X_INTRODUCED_68,X_INTRODUCED_69,X_INTRODUCED_70,X_INTRODUCED_71,X_INTRODUCED_72,X_INTRODUCED_73,X_INTRODUCED_74,X_INTRODUCED_75,X_INTRODUCED_76,X_INTRODUCED_77,X_INTRODUCED_78,X_INTRODUCED_79,X_INTRODUCED_80,X_INTRODUCED_81,X_INTRODUCED_82,X_INTRODUCED_83];
array [1..12] of var int: availableAdders = [X_INTRODUCED_84,X_INTRODUCED_85,X_INTRODUCED_86,X_INTRODUCED_87,X_INTRODUCED_88,X_INTRODUCED_89,X_INTRODUCED_90,X_INTRODUCED_91,X_INTRODUCED_92,X_INTRODUCED_93,X_INTRODUCED_94,X_INTRODUCED_95];
array [1..16] of var int: availableMullers = [X_INTRODUCED_96,X_INTRODUCED_97,X_INTRODUCED_98,X_INTRODUCED_99,X_INTRODUCED_100,X_INTRODUCED_101,X_INTRODUCED_102,X_INTRODUCED_103,X_INTRODUCED_104,X_INTRODUCED_105,X_INTRODUCED_106,X_INTRODUCED_107,X_INTRODUCED_108,X_INTRODUCED_109,X_INTRODUCED_110,X_INTRODUCED_111];
constraint jacop_list_diff2(startAdd,availableAdders,addDur,X_INTRODUCED_112);
constraint jacop_list_diff2(startMul,availableMullers,mulDur,X_INTRODUCED_113);
constraint int_lin_le([1,-1],[X_INTRODUCED_68,X_INTRODUCED_56],-2);
constraint int_lin_le([1,-1],[X_INTRODUCED_69,X_INTRODUCED_56],-2);
constraint int_lin_le([1,-1],[X_INTRODUCED_70,X_INTRODUCED_57],-2);
constraint int_lin_le([1,-1],[X_INTRODUCED_71,X_INTRODUCED_57],-2);
constraint int_lin_le([1,-1],[X_INTRODUCED_72,X_INTRODUCED_58],-2);
constraint int_lin_le([1,-1],[X_INTRODUCED_73,X_INTRODUCED_58],-2);
constraint int_lin_le([1,-1],[X_INTRODUCED_74,X_INTRODUCED_59],-2);
constraint int_lin_le([1,-1],[X_INTRODUCED_75,X_INTRODUCED_59],-2);
constraint int_lin_le([1,-1],[X_INTRODUCED_57,X_INTRODUCED_60],-1);
constraint int_lin_le([1,-1],[X_INTRODUCED_58,X_INTRODUCED_61],-1);
constraint int_lin_le([1,-1],[X_INTRODUCED_60,X_INTRODUCED_76],-1);
constraint int_lin_le([1,-1],[X_INTRODUCED_61,X_INTRODUCED_77],-1);
constraint int_lin_le([1,-1],[X_INTRODUCED_60,X_INTRODUCED_78],-1);
constraint int_lin_le([1,-1],[X_INTRODUCED_61,X_INTRODUCED_79],-1);
constraint int_lin_le([1,-1],[X_INTRODUCED_76,X_INTRODUCED_62],-2);
constraint int_lin_le([1,-1],[X_INTRODUCED_77,X_INTRODUCED_62],-2);
constraint int_lin_le([1,-1],[X_INTRODUCED_78,X_INTRODUCED_63],-2);
constraint int_lin_le([1,-1],[X_INTRODUCED_79,X_INTRODUCED_63],-2);
constraint int_lin_le([1,-1],[X_INTRODUCED_62,X_INTRODUCED_80],-1);
constraint int_lin_le([1,-1],[X_INTRODUCED_63,X_INTRODUCED_81],-1);
constraint int_lin_le([1,-1],[X_INTRODUCED_62,X_INTRODUCED_82],-1);
constraint int_lin_le([1,-1],[X_INTRODUCED_63,X_INTRODUCED_83],-1);
constraint int_lin_le([1,-1],[X_INTRODUCED_80,X_INTRODUCED_64],-2);
constraint int_lin_le([1,-1],[X_INTRODUCED_81,X_INTRODUCED_64],-2);
constraint int_lin_le([1,-1],[X_INTRODUCED_82,X_INTRODUCED_65],-2);
constraint int_lin_le([1,-1],[X_INTRODUCED_83,X_INTRODUCED_65],-2);
constraint int_lin_le([1,-1],[X_INTRODUCED_56,X_INTRODUCED_66],-1);
constraint int_lin_le([1,-1],[X_INTRODUCED_64,X_INTRODUCED_66],-1);
constraint int_lin_le([1,-1],[X_INTRODUCED_59,X_INTRODUCED_67],-1);
constraint int_lin_le([1,-1],[X_INTRODUCED_65,X_INTRODUCED_67],-1);
constraint jacop_cumulative(startAdd,X_INTRODUCED_145,X_INTRODUCED_145,11);
constraint jacop_cumulative(startMul,X_INTRODUCED_147,X_INTRODUCED_146,15);
constraint int_lin_le([1,-1],[X_INTRODUCED_68,end],-2);
constraint int_lin_le([1,-1],[X_INTRODUCED_69,end],-2);
constraint int_lin_le([1,-1],[X_INTRODUCED_70,end],-2);
constraint int_lin_le([1,-1],[X_INTRODUCED_71,end],-2);
constraint int_lin_le([1,-1],[X_INTRODUCED_72,end],-2);
constraint int_lin_le([1,-1],[X_INTRODUCED_73,end],-2);
constraint int_lin_le([1,-1],[X_INTRODUCED_74,end],-2);
constraint int_lin_le([1,-1],[X_INTRODUCED_75,end],-2);
constraint int_lin_le([1,-1],[X_INTRODUCED_56,end],-1);
constraint int_lin_le([1,-1],[X_INTRODUCED_57,end],-1);
constraint int_lin_le([1,-1],[X_INTRODUCED_58,end],-1);
constraint int_lin_le([1,-1],[X_INTRODUCED_59,end],-1);
constraint int_lin_le([1,-1],[X_INTRODUCED_60,end],-1);
constraint int_lin_le([1,-1],[X_INTRODUCED_61,end],-1);
constraint int_lin_le([1,-1],[X_INTRODUCED_76,end],-2);
constraint int_lin_le([1,-1],[X_INTRODUCED_77,end],-2);
constraint int_lin_le([1,-1],[X_INTRODUCED_78,end],-2);
constraint int_lin_le([1,-1],[X_INTRODUCED_79,end],-2);
constraint int_lin_le([1,-1],[X_INTRODUCED_62,end],-1);
constraint int_lin_le([1,-1],[X_INTRODUCED_63,end],-1);
constraint int_lin_le([1,-1],[X_INTRODUCED_80,end],-2);
constraint int_lin_le([1,-1],[X_INTRODUCED_81,end],-2);
constraint int_lin_le([1,-1],[X_INTRODUCED_82,end],-2);
constraint int_lin_le([1,-1],[X_INTRODUCED_83,end],-2);
constraint int_lin_le([1,-1],[X_INTRODUCED_64,end],-1);
constraint int_lin_le([1,-1],[X_INTRODUCED_65,end],-1);
constraint int_lin_le([1,-1],[X_INTRODUCED_66,end],-1);
constraint int_lin_le([1,-1],[X_INTRODUCED_67,end],-1);
solve :: seq_search([int_search(startAdd,smallest,indomain_min,complete),int_search(startMul,smallest,indomain_min,complete),int_search([end],input_order,indomain_min,complete)]) minimize end;
